P3
# Metadata: PNM files may contain optional metadata such as image dimensions and maximum color values.
3 2
255
255 0 0
0 255 0
0 0 255
